NAME: Li-25
BEST_KNOWN: 16763.72
COMMENT: 16763.720000
DIMENSION: 761
CAPACITY: 900
DISTANCE: 900
EDGE_WEIGHT_FORMAT: FUNCTION
EDGE_WEIGHT_TYPE: EXACT_2D
NODE_COORD_SECTION
1 0.00000 0.00000
2 30.00000 0.00000
3 29.89750 2.47740
4 29.59080 4.93780
5 29.08200 7.36460
6 28.37450 9.74100
7 27.47320 12.05090
8 26.38420 14.27840
9 25.11500 16.40840
10 23.67420 18.42640
11 22.07170 20.31840
12 20.31840 22.07170
13 18.42640 23.67420
14 16.40840 25.11500
15 14.27840 26.38420
16 12.05090 27.47320
17 9.74100 28.37450
18 7.36460 29.08200
19 4.93780 29.59080
20 2.47740 29.89750
21 0.00000 30.00000
22 -2.47740 29.89750
23 -4.93780 29.59080
24 -7.36460 29.08200
25 -9.74100 28.37450
26 -12.05090 27.47320
27 -14.27840 26.38420
28 -16.40840 25.11500
29 -18.42640 23.67420
30 -20.31840 22.07170
31 -22.07170 20.31840
32 -23.67420 18.42640
33 -25.11500 16.40840
34 -26.38420 14.27840
35 -27.47320 12.05090
36 -28.37450 9.74100
37 -29.08200 7.36460
38 -29.59080 4.93780
39 -29.89750 2.47740
40 -30.00000 0.00000
41 -29.89750 -2.47740
42 -29.59080 -4.93780
43 -29.08200 -7.36460
44 -28.37450 -9.74100
45 -27.47320 -12.05090
46 -26.38420 -14.27840
47 -25.11500 -16.40840
48 -23.67420 -18.42640
49 -22.07170 -20.31840
50 -20.31840 -22.07170
51 -18.42640 -23.67420
52 -16.40840 -25.11500
53 -14.27840 -26.38420
54 -12.05090 -27.47320
55 -9.74100 -28.37450
56 -7.36460 -29.08200
57 -4.93780 -29.59080
58 -2.47740 -29.89750
59 -0.00000 -30.00000
60 2.47740 -29.89750
61 4.93780 -29.59080
62 7.36460 -29.08200
63 9.74100 -28.37450
64 12.05090 -27.47320
65 14.27840 -26.38420
66 16.40840 -25.11500
67 18.42640 -23.67420
68 20.31840 -22.07170
69 22.07170 -20.31840
70 23.67420 -18.42640
71 25.11500 -16.40840
72 26.38420 -14.27840
73 27.47320 -12.05090
74 28.37450 -9.74100
75 29.08200 -7.36460
76 29.59080 -4.93780
77 29.89750 -2.47740
78 60.00000 0.00000
79 59.79510 4.95480
80 59.18170 9.87570
81 58.16400 14.72910
82 56.74900 19.48200
83 54.94640 24.10170
84 52.76840 28.55680
85 50.23000 32.81690
86 47.34840 36.85280
87 44.14340 40.63690
88 40.63690 44.14340
89 36.85280 47.34840
90 32.81690 50.23000
91 28.55680 52.76840
92 24.10170 54.94640
93 19.48200 56.74900
94 14.72910 58.16400
95 9.87570 59.18170
96 4.95480 59.79510
97 0.00000 60.00000
98 -4.95480 59.79510
99 -9.87570 59.18170
100 -14.72910 58.16400
101 -19.48200 56.74900
102 -24.10170 54.94640
103 -28.55680 52.76840
104 -32.81690 50.23000
105 -36.85280 47.34840
106 -40.63690 44.14340
107 -44.14340 40.63690
108 -47.34840 36.85280
109 -50.23000 32.81690
110 -52.76840 28.55680
111 -54.94640 24.10170
112 -56.74900 19.48200
113 -58.16400 14.72910
114 -59.18170 9.87570
115 -59.79510 4.95480
116 -60.00000 0.00000
117 -59.79510 -4.95480
118 -59.18170 -9.87570
119 -58.16400 -14.72910
120 -56.74900 -19.48200
121 -54.94640 -24.10170
122 -52.76840 -28.55680
123 -50.23000 -32.81690
124 -47.34840 -36.85280
125 -44.14340 -40.63690
126 -40.63690 -44.14340
127 -36.85280 -47.34840
128 -32.81690 -50.23000
129 -28.55680 -52.76840
130 -24.10170 -54.94640
131 -19.48200 -56.74900
132 -14.72910 -58.16400
133 -9.87570 -59.18170
134 -4.95480 -59.79510
135 -0.00000 -60.00000
136 4.95480 -59.79510
137 9.87570 -59.18170
138 14.72910 -58.16400
139 19.48200 -56.74900
140 24.10170 -54.94640
141 28.55680 -52.76840
142 32.81690 -50.23000
143 36.85280 -47.34840
144 40.63690 -44.14340
145 44.14340 -40.63690
146 47.34840 -36.85280
147 50.23000 -32.81690
148 52.76840 -28.55680
149 54.94640 -24.10170
150 56.74900 -19.48200
151 58.16400 -14.72910
152 59.18170 -9.87570
153 59.79510 -4.95480
154 90.00000 0.00000
155 89.69260 7.43210
156 88.77250 14.81350
157 87.24600 22.09370
158 85.12360 29.22300
159 82.41960 36.15260
160 79.15260 42.83530
161 75.34500 49.22530
162 71.02260 55.27910
163 66.21520 60.95530
164 60.95530 66.21520
165 55.27910 71.02260
166 49.22530 75.34500
167 42.83530 79.15260
168 36.15260 82.41960
169 29.22300 85.12360
170 22.09370 87.24600
171 14.81350 88.77250
172 7.43210 89.69260
173 0.00000 90.00000
174 -7.43210 89.69260
175 -14.81350 88.77250
176 -22.09370 87.24600
177 -29.22300 85.12360
178 -36.15260 82.41960
179 -42.83530 79.15260
180 -49.22530 75.34500
181 -55.27910 71.02260
182 -60.95530 66.21520
183 -66.21520 60.95530
184 -71.02260 55.27910
185 -75.34500 49.22530
186 -79.15260 42.83530
187 -82.41960 36.15260
188 -85.12360 29.22300
189 -87.24600 22.09370
190 -88.77250 14.81350
191 -89.69260 7.43210
192 -90.00000 0.00000
193 -89.69260 -7.43210
194 -88.77250 -14.81350
195 -87.24600 -22.09370
196 -85.12360 -29.22300
197 -82.41960 -36.15260
198 -79.15260 -42.83530
199 -75.34500 -49.22530
200 -71.02260 -55.27910
201 -66.21520 -60.95530
202 -60.95530 -66.21520
203 -55.27910 -71.02260
204 -49.22530 -75.34500
205 -42.83530 -79.15260
206 -36.15260 -82.41960
207 -29.22300 -85.12360
208 -22.09370 -87.24600
209 -14.81350 -88.77250
210 -7.43210 -89.69260
211 -0.00000 -90.00000
212 7.43210 -89.69260
213 14.81350 -88.77250
214 22.09370 -87.24600
215 29.22300 -85.12360
216 36.15260 -82.41960
217 42.83530 -79.15260
218 49.22530 -75.34500
219 55.27910 -71.02260
220 60.95530 -66.21520
221 66.21520 -60.95530
222 71.02260 -55.27910
223 75.34500 -49.22530
224 79.15260 -42.83530
225 82.41960 -36.15260
226 85.12360 -29.22300
227 87.24600 -22.09370
228 88.77250 -14.81350
229 89.69260 -7.43210
230 120.00000 0.00000
231 119.59010 9.90950
232 118.36340 19.75140
233 116.32800 29.45830
234 113.49810 38.96390
235 109.89280 48.20350
236 105.53690 57.11370
237 100.46000 65.63380
238 94.69690 73.70550
239 88.28690 81.27380
240 81.27380 88.28690
241 73.70550 94.69690
242 65.63380 100.46000
243 57.11370 105.53690
244 48.20350 109.89280
245 38.96390 113.49810
246 29.45830 116.32800
247 19.75140 118.36340
248 9.90950 119.59010
249 0.00000 120.00000
250 -9.90950 119.59010
251 -19.75140 118.36340
252 -29.45830 116.32800
253 -38.96390 113.49810
254 -48.20350 109.89280
255 -57.11370 105.53690
256 -65.63380 100.46000
257 -73.70550 94.69690
258 -81.27380 88.28690
259 -88.28690 81.27380
260 -94.69690 73.70550
261 -100.46000 65.63380
262 -105.53690 57.11370
263 -109.89280 48.20350
264 -113.49810 38.96390
265 -116.32800 29.45830
266 -118.36340 19.75140
267 -119.59010 9.90950
268 -120.00000 0.00000
269 -119.59010 -9.90950
270 -118.36340 -19.75140
271 -116.32800 -29.45830
272 -113.49810 -38.96390
273 -109.89280 -48.20350
274 -105.53690 -57.11370
275 -100.46000 -65.63380
276 -94.69690 -73.70550
277 -88.28690 -81.27380
278 -81.27380 -88.28690
279 -73.70550 -94.69690
280 -65.63380 -100.46000
281 -57.11370 -105.53690
282 -48.20350 -109.89280
283 -38.96390 -113.49810
284 -29.45830 -116.32800
285 -19.75140 -118.36340
286 -9.90950 -119.59010
287 -0.00000 -120.00000
288 9.90950 -119.59010
289 19.75140 -118.36340
290 29.45830 -116.32800
291 38.96390 -113.49810
292 48.20350 -109.89280
293 57.11370 -105.53690
294 65.63380 -100.46000
295 73.70550 -94.69690
296 81.27380 -88.28690
297 88.28690 -81.27380
298 94.69690 -73.70550
299 100.46000 -65.63380
300 105.53690 -57.11370
301 109.89280 -48.20350
302 113.49810 -38.96390
303 116.32800 -29.45830
304 118.36340 -19.75140
305 119.59010 -9.90950
306 150.00000 0.00000
307 149.48770 12.38690
308 147.95419 24.68920
309 145.41000 36.82280
310 141.87260 48.70490
311 137.36600 60.25430
312 131.92110 71.39210
313 125.57500 82.04220
314 118.37110 92.13190
315 110.35860 101.59220
316 101.59220 110.35860
317 92.13190 118.37110
318 82.04220 125.57500
319 71.39210 131.92110
320 60.25430 137.36600
321 48.70490 141.87260
322 36.82280 145.41000
323 24.68920 147.95419
324 12.38690 149.48770
325 0.00000 150.00000
326 -12.38690 149.48770
327 -24.68920 147.95419
328 -36.82280 145.41000
329 -48.70490 141.87260
330 -60.25430 137.36600
331 -71.39210 131.92110
332 -82.04220 125.57500
333 -92.13190 118.37110
334 -101.59220 110.35860
335 -110.35860 101.59220
336 -118.37110 92.13190
337 -125.57500 82.04220
338 -131.92110 71.39210
339 -137.36600 60.25430
340 -141.87260 48.70490
341 -145.41000 36.82280
342 -147.95419 24.68920
343 -149.48770 12.38690
344 -150.00000 0.00000
345 -149.48770 -12.38690
346 -147.95419 -24.68920
347 -145.41000 -36.82280
348 -141.87260 -48.70490
349 -137.36600 -60.25430
350 -131.92110 -71.39210
351 -125.57500 -82.04220
352 -118.37110 -92.13190
353 -110.35860 -101.59220
354 -101.59220 -110.35860
355 -92.13190 -118.37110
356 -82.04220 -125.57500
357 -71.39210 -131.92110
358 -60.25430 -137.36600
359 -48.70490 -141.87260
360 -36.82280 -145.41000
361 -24.68920 -147.95419
362 -12.38690 -149.48770
363 -0.00000 -150.00000
364 12.38690 -149.48770
365 24.68920 -147.95419
366 36.82280 -145.41000
367 48.70490 -141.87260
368 60.25430 -137.36600
369 71.39210 -131.92110
370 82.04220 -125.57500
371 92.13190 -118.37110
372 101.59220 -110.35860
373 110.35860 -101.59220
374 118.37110 -92.13190
375 125.57500 -82.04220
376 131.92110 -71.39210
377 137.36600 -60.25430
378 141.87260 -48.70490
379 145.41000 -36.82280
380 147.95419 -24.68920
381 149.48770 -12.38690
382 180.00000 0.00000
383 179.38519 14.86430
384 177.54500 29.62700
385 174.49200 44.18740
386 170.24710 58.44590
387 164.83920 72.30520
388 158.30530 85.67050
389 150.69000 98.45070
390 142.04530 110.55830
391 132.43030 121.91070
392 121.91070 132.43030
393 110.55830 142.04530
394 98.45070 150.69000
395 85.67050 158.30530
396 72.30520 164.83920
397 58.44590 170.24710
398 44.18740 174.49200
399 29.62700 177.54500
400 14.86430 179.38519
401 0.00000 180.00000
402 -14.86430 179.38519
403 -29.62700 177.54500
404 -44.18740 174.49200
405 -58.44590 170.24710
406 -72.30520 164.83920
407 -85.67050 158.30530
408 -98.45070 150.69000
409 -110.55830 142.04530
410 -121.91070 132.43030
411 -132.43030 121.91070
412 -142.04530 110.55830
413 -150.69000 98.45070
414 -158.30530 85.67050
415 -164.83920 72.30520
416 -170.24710 58.44590
417 -174.49200 44.18740
418 -177.54500 29.62700
419 -179.38519 14.86430
420 -180.00000 0.00000
421 -179.38519 -14.86430
422 -177.54500 -29.62700
423 -174.49200 -44.18740
424 -170.24710 -58.44590
425 -164.83920 -72.30520
426 -158.30530 -85.67050
427 -150.69000 -98.45070
428 -142.04530 -110.55830
429 -132.43030 -121.91070
430 -121.91070 -132.43030
431 -110.55830 -142.04530
432 -98.45070 -150.69000
433 -85.67050 -158.30530
434 -72.30520 -164.83920
435 -58.44590 -170.24710
436 -44.18740 -174.49200
437 -29.62700 -177.54500
438 -14.86430 -179.38519
439 -0.00000 -180.00000
440 14.86430 -179.38519
441 29.62700 -177.54500
442 44.18740 -174.49200
443 58.44590 -170.24710
444 72.30520 -164.83920
445 85.67050 -158.30530
446 98.45070 -150.69000
447 110.55830 -142.04530
448 121.91070 -132.43030
449 132.43030 -121.91070
450 142.04530 -110.55830
451 150.69000 -98.45070
452 158.30530 -85.67050
453 164.83920 -72.30520
454 170.24710 -58.44590
455 174.49200 -44.18740
456 177.54500 -29.62700
457 179.38519 -14.86430
458 210.00000 0.00000
459 209.28270 17.34170
460 207.13589 34.56490
461 203.57410 51.55200
462 198.62160 68.18690
463 192.31239 84.35600
464 184.68950 99.94900
465 175.80499 114.85910
466 165.71950 128.98470
467 154.50200 142.22910
468 142.22910 154.50200
469 128.98470 165.71950
470 114.85910 175.80499
471 99.94900 184.68950
472 84.35600 192.31239
473 68.18690 198.62160
474 51.55200 203.57410
475 34.56490 207.13589
476 17.34170 209.28270
477 0.00000 210.00000
478 -17.34170 209.28270
479 -34.56490 207.13589
480 -51.55200 203.57410
481 -68.18690 198.62160
482 -84.35600 192.31239
483 -99.94900 184.68950
484 -114.85910 175.80499
485 -128.98470 165.71950
486 -142.22910 154.50200
487 -154.50200 142.22910
488 -165.71950 128.98470
489 -175.80499 114.85910
490 -184.68950 99.94900
491 -192.31239 84.35600
492 -198.62160 68.18690
493 -203.57410 51.55200
494 -207.13589 34.56490
495 -209.28270 17.34170
496 -210.00000 0.00000
497 -209.28270 -17.34170
498 -207.13589 -34.56490
499 -203.57410 -51.55200
500 -198.62160 -68.18690
501 -192.31239 -84.35600
502 -184.68950 -99.94900
503 -175.80499 -114.85910
504 -165.71950 -128.98470
505 -154.50200 -142.22910
506 -142.22910 -154.50200
507 -128.98470 -165.71950
508 -114.85910 -175.80499
509 -99.94900 -184.68950
510 -84.35600 -192.31239
511 -68.18690 -198.62160
512 -51.55200 -203.57410
513 -34.56490 -207.13589
514 -17.34170 -209.28270
515 -0.00000 -210.00000
516 17.34170 -209.28270
517 34.56490 -207.13589
518 51.55200 -203.57410
519 68.18690 -198.62160
520 84.35600 -192.31239
521 99.94900 -184.68950
522 114.85910 -175.80499
523 128.98470 -165.71950
524 142.22910 -154.50200
525 154.50200 -142.22910
526 165.71950 -128.98470
527 175.80499 -114.85910
528 184.68950 -99.94900
529 192.31239 -84.35600
530 198.62160 -68.18690
531 203.57410 -51.55200
532 207.13589 -34.56490
533 209.28270 -17.34170
534 240.00000 0.00000
535 239.18030 19.81900
536 236.72670 39.50270
537 232.65610 58.91650
538 226.99609 77.92790
539 219.78560 96.40690
540 211.07370 114.22740
541 200.92000 131.26759
542 189.39371 147.41110
543 176.57370 162.54761
544 162.54761 176.57370
545 147.41110 189.39371
546 131.26759 200.92000
547 114.22740 211.07370
548 96.40690 219.78560
549 77.92790 226.99609
550 58.91650 232.65610
551 39.50270 236.72670
552 19.81900 239.18030
553 0.00000 240.00000
554 -19.81900 239.18030
555 -39.50270 236.72670
556 -58.91650 232.65610
557 -77.92790 226.99609
558 -96.40690 219.78560
559 -114.22740 211.07370
560 -131.26759 200.92000
561 -147.41110 189.39371
562 -162.54761 176.57370
563 -176.57370 162.54761
564 -189.39371 147.41110
565 -200.92000 131.26759
566 -211.07370 114.22740
567 -219.78560 96.40690
568 -226.99609 77.92790
569 -232.65610 58.91650
570 -236.72670 39.50270
571 -239.18030 19.81900
572 -240.00000 0.00000
573 -239.18030 -19.81900
574 -236.72670 -39.50270
575 -232.65610 -58.91650
576 -226.99609 -77.92790
577 -219.78560 -96.40690
578 -211.07370 -114.22740
579 -200.92000 -131.26759
580 -189.39371 -147.41110
581 -176.57370 -162.54761
582 -162.54761 -176.57370
583 -147.41110 -189.39371
584 -131.26759 -200.92000
585 -114.22740 -211.07370
586 -96.40690 -219.78560
587 -77.92790 -226.99609
588 -58.91650 -232.65610
589 -39.50270 -236.72670
590 -19.81900 -239.18030
591 -0.00000 -240.00000
592 19.81900 -239.18030
593 39.50270 -236.72670
594 58.91650 -232.65610
595 77.92790 -226.99609
596 96.40690 -219.78560
597 114.22740 -211.07370
598 131.26759 -200.92000
599 147.41110 -189.39371
600 162.54761 -176.57370
601 176.57370 -162.54761
602 189.39371 -147.41110
603 200.92000 -131.26759
604 211.07370 -114.22740
605 219.78560 -96.40690
606 226.99609 -77.92790
607 232.65610 -58.91650
608 236.72670 -39.50270
609 239.18030 -19.81900
610 270.00000 0.00000
611 269.07779 22.29640
612 266.31760 44.44050
613 261.73810 66.28110
614 255.37070 87.66890
615 247.25880 108.45780
616 237.45790 128.50580
617 226.03490 147.67599
618 213.06790 165.83740
619 198.64549 182.86600
620 182.86600 198.64549
621 165.83740 213.06790
622 147.67599 226.03490
623 128.50580 237.45790
624 108.45780 247.25880
625 87.66890 255.37070
626 66.28110 261.73810
627 44.44050 266.31760
628 22.29640 269.07779
629 0.00000 270.00000
630 -22.29640 269.07779
631 -44.44050 266.31760
632 -66.28110 261.73810
633 -87.66890 255.37070
634 -108.45780 247.25880
635 -128.50580 237.45790
636 -147.67599 226.03490
637 -165.83740 213.06790
638 -182.86600 198.64549
639 -198.64549 182.86600
640 -213.06790 165.83740
641 -226.03490 147.67599
642 -237.45790 128.50580
643 -247.25880 108.45780
644 -255.37070 87.66890
645 -261.73810 66.28110
646 -266.31760 44.44050
647 -269.07779 22.29640
648 -270.00000 0.00000
649 -269.07779 -22.29640
650 -266.31760 -44.44050
651 -261.73810 -66.28110
652 -255.37070 -87.66890
653 -247.25880 -108.45780
654 -237.45790 -128.50580
655 -226.03490 -147.67599
656 -213.06790 -165.83740
657 -198.64549 -182.86600
658 -182.86600 -198.64549
659 -165.83740 -213.06790
660 -147.67599 -226.03490
661 -128.50580 -237.45790
662 -108.45780 -247.25880
663 -87.66890 -255.37070
664 -66.28110 -261.73810
665 -44.44050 -266.31760
666 -22.29640 -269.07779
667 -0.00000 -270.00000
668 22.29640 -269.07779
669 44.44050 -266.31760
670 66.28110 -261.73810
671 87.66890 -255.37070
672 108.45780 -247.25880
673 128.50580 -237.45790
674 147.67599 -226.03490
675 165.83740 -213.06790
676 182.86600 -198.64549
677 198.64549 -182.86600
678 213.06790 -165.83740
679 226.03490 -147.67599
680 237.45790 -128.50580
681 247.25880 -108.45780
682 255.37070 -87.66890
683 261.73810 -66.28110
684 266.31760 -44.44050
685 269.07779 -22.29640
686 300.00000 0.00000
687 298.97531 24.77380
688 295.90839 49.37840
689 290.82010 73.64560
690 283.74521 97.40980
691 274.73199 120.50860
692 263.84210 142.78419
693 251.14990 164.08440
694 236.74220 184.26379
695 220.71719 203.18449
696 203.18449 220.71719
697 184.26379 236.74220
698 164.08440 251.14990
699 142.78419 263.84210
700 120.50860 274.73199
701 97.40980 283.74521
702 73.64560 290.82010
703 49.37840 295.90839
704 24.77380 298.97531
705 0.00000 300.00000
706 -24.77380 298.97531
707 -49.37840 295.90839
708 -73.64560 290.82010
709 -97.40980 283.74521
710 -120.50860 274.73199
711 -142.78419 263.84210
712 -164.08440 251.14990
713 -184.26379 236.74220
714 -203.18449 220.71719
715 -220.71719 203.18449
716 -236.74220 184.26379
717 -251.14990 164.08440
718 -263.84210 142.78419
719 -274.73199 120.50860
720 -283.74521 97.40980
721 -290.82010 73.64560
722 -295.90839 49.37840
723 -298.97531 24.77380
724 -300.00000 0.00000
725 -298.97531 -24.77380
726 -295.90839 -49.37840
727 -290.82010 -73.64560
728 -283.74521 -97.40980
729 -274.73199 -120.50860
730 -263.84210 -142.78419
731 -251.14990 -164.08440
732 -236.74220 -184.26379
733 -220.71719 -203.18449
734 -203.18449 -220.71719
735 -184.26379 -236.74220
736 -164.08440 -251.14990
737 -142.78419 -263.84210
738 -120.50860 -274.73199
739 -97.40980 -283.74521
740 -73.64560 -290.82010
741 -49.37840 -295.90839
742 -24.77380 -298.97531
743 -0.00000 -300.00000
744 24.77380 -298.97531
745 49.37840 -295.90839
746 73.64560 -290.82010
747 97.40980 -283.74521
748 120.50860 -274.73199
749 142.78419 -263.84210
750 164.08440 -251.14990
751 184.26379 -236.74220
752 203.18449 -220.71719
753 220.71719 -203.18449
754 236.74220 -184.26379
755 251.14990 -164.08440
756 263.84210 -142.78419
757 274.73199 -120.50860
758 283.74521 -97.40980
759 290.82010 -73.64560
760 295.90839 -49.37840
761 298.97531 -24.77380
DEMAND_SECTION
1 0
2 10
3 30
4 30
5 10
6 10
7 30
8 30
9 10
10 10
11 30
12 30
13 10
14 10
15 30
16 30
17 10
18 10
19 30
20 30
21 10
22 10
23 30
24 30
25 10
26 10
27 30
28 30
29 10
30 10
31 30
32 30
33 10
34 10
35 30
36 30
37 10
38 10
39 30
40 30
41 10
42 10
43 30
44 30
45 10
46 10
47 30
48 30
49 10
50 10
51 30
52 30
53 10
54 10
55 30
56 30
57 10
58 10
59 30
60 30
61 10
62 10
63 30
64 30
65 10
66 10
67 30
68 30
69 10
70 10
71 30
72 30
73 10
74 10
75 30
76 30
77 10
78 10
79 30
80 30
81 10
82 10
83 30
84 30
85 10
86 10
87 30
88 30
89 10
90 10
91 30
92 30
93 10
94 10
95 30
96 30
97 10
98 10
99 30
100 30
101 10
102 10
103 30
104 30
105 10
106 10
107 30
108 30
109 10
110 10
111 30
112 30
113 10
114 10
115 30
116 30
117 10
118 10
119 30
120 30
121 10
122 10
123 30
124 30
125 10
126 10
127 30
128 30
129 10
130 10
131 30
132 30
133 10
134 10
135 30
136 30
137 10
138 10
139 30
140 30
141 10
142 10
143 30
144 30
145 10
146 10
147 30
148 30
149 10
150 10
151 30
152 30
153 10
154 10
155 30
156 30
157 10
158 10
159 30
160 30
161 10
162 10
163 30
164 30
165 10
166 10
167 30
168 30
169 10
170 10
171 30
172 30
173 10
174 10
175 30
176 30
177 10
178 10
179 30
180 30
181 10
182 10
183 30
184 30
185 10
186 10
187 30
188 30
189 10
190 10
191 30
192 30
193 10
194 10
195 30
196 30
197 10
198 10
199 30
200 30
201 10
202 10
203 30
204 30
205 10
206 10
207 30
208 30
209 10
210 10
211 30
212 30
213 10
214 10
215 30
216 30
217 10
218 10
219 30
220 30
221 10
222 10
223 30
224 30
225 10
226 10
227 30
228 30
229 10
230 10
231 30
232 30
233 10
234 10
235 30
236 30
237 10
238 10
239 30
240 30
241 10
242 10
243 30
244 30
245 10
246 10
247 30
248 30
249 10
250 10
251 30
252 30
253 10
254 10
255 30
256 30
257 10
258 10
259 30
260 30
261 10
262 10
263 30
264 30
265 10
266 10
267 30
268 30
269 10
270 10
271 30
272 30
273 10
274 10
275 30
276 30
277 10
278 10
279 30
280 30
281 10
282 10
283 30
284 30
285 10
286 10
287 30
288 30
289 10
290 10
291 30
292 30
293 10
294 10
295 30
296 30
297 10
298 10
299 30
300 30
301 10
302 10
303 30
304 30
305 10
306 10
307 30
308 30
309 10
310 10
311 30
312 30
313 10
314 10
315 30
316 30
317 10
318 10
319 30
320 30
321 10
322 10
323 30
324 30
325 10
326 10
327 30
328 30
329 10
330 10
331 30
332 30
333 10
334 10
335 30
336 30
337 10
338 10
339 30
340 30
341 10
342 10
343 30
344 30
345 10
346 10
347 30
348 30
349 10
350 10
351 30
352 30
353 10
354 10
355 30
356 30
357 10
358 10
359 30
360 30
361 10
362 10
363 30
364 30
365 10
366 10
367 30
368 30
369 10
370 10
371 30
372 30
373 10
374 10
375 30
376 30
377 10
378 10
379 30
380 30
381 10
382 10
383 30
384 30
385 10
386 10
387 30
388 30
389 10
390 10
391 30
392 30
393 10
394 10
395 30
396 30
397 10
398 10
399 30
400 30
401 10
402 10
403 30
404 30
405 10
406 10
407 30
408 30
409 10
410 10
411 30
412 30
413 10
414 10
415 30
416 30
417 10
418 10
419 30
420 30
421 10
422 10
423 30
424 30
425 10
426 10
427 30
428 30
429 10
430 10
431 30
432 30
433 10
434 10
435 30
436 30
437 10
438 10
439 30
440 30
441 10
442 10
443 30
444 30
445 10
446 10
447 30
448 30
449 10
450 10
451 30
452 30
453 10
454 10
455 30
456 30
457 10
458 10
459 30
460 30
461 10
462 10
463 30
464 30
465 10
466 10
467 30
468 30
469 10
470 10
471 30
472 30
473 10
474 10
475 30
476 30
477 10
478 10
479 30
480 30
481 10
482 10
483 30
484 30
485 10
486 10
487 30
488 30
489 10
490 10
491 30
492 30
493 10
494 10
495 30
496 30
497 10
498 10
499 30
500 30
501 10
502 10
503 30
504 30
505 10
506 10
507 30
508 30
509 10
510 10
511 30
512 30
513 10
514 10
515 30
516 30
517 10
518 10
519 30
520 30
521 10
522 10
523 30
524 30
525 10
526 10
527 30
528 30
529 10
530 10
531 30
532 30
533 10
534 10
535 30
536 30
537 10
538 10
539 30
540 30
541 10
542 10
543 30
544 30
545 10
546 10
547 30
548 30
549 10
550 10
551 30
552 30
553 10
554 10
555 30
556 30
557 10
558 10
559 30
560 30
561 10
562 10
563 30
564 30
565 10
566 10
567 30
568 30
569 10
570 10
571 30
572 30
573 10
574 10
575 30
576 30
577 10
578 10
579 30
580 30
581 10
582 10
583 30
584 30
585 10
586 10
587 30
588 30
589 10
590 10
591 30
592 30
593 10
594 10
595 30
596 30
597 10
598 10
599 30
600 30
601 10
602 10
603 30
604 30
605 10
606 10
607 30
608 30
609 10
610 10
611 30
612 30
613 10
614 10
615 30
616 30
617 10
618 10
619 30
620 30
621 10
622 10
623 30
624 30
625 10
626 10
627 30
628 30
629 10
630 10
631 30
632 30
633 10
634 10
635 30
636 30
637 10
638 10
639 30
640 30
641 10
642 10
643 30
644 30
645 10
646 10
647 30
648 30
649 10
650 10
651 30
652 30
653 10
654 10
655 30
656 30
657 10
658 10
659 30
660 30
661 10
662 10
663 30
664 30
665 10
666 10
667 30
668 30
669 10
670 10
671 30
672 30
673 10
674 10
675 30
676 30
677 10
678 10
679 30
680 30
681 10
682 10
683 30
684 30
685 10
686 10
687 30
688 30
689 10
690 10
691 30
692 30
693 10
694 10
695 30
696 30
697 10
698 10
699 30
700 30
701 10
702 10
703 30
704 30
705 10
706 10
707 30
708 30
709 10
710 10
711 30
712 30
713 10
714 10
715 30
716 30
717 10
718 10
719 30
720 30
721 10
722 10
723 30
724 30
725 10
726 10
727 30
728 30
729 10
730 10
731 30
732 30
733 10
734 10
735 30
736 30
737 10
738 10
739 30
740 30
741 10
742 10
743 30
744 30
745 10
746 10
747 30
748 30
749 10
750 10
751 30
752 30
753 10
754 10
755 30
756 30
757 10
758 10
759 30
760 30
761 10
DEPOT_SECTION
1
-1
EOF
